112550
[0, 2, 1, 51, 82, 83, 84, 148, 185, 281, 280, 229, 186, 187, 188, 224, 230, 231, 279, 284, 285, 287, 288, 289, 290, 291, 292, 358, 356, 357, 355, 354, 353, 351, 352, 350, 349, 348, 346, 347, 345, 344, 286, 339, 340, 341, 342, 343, 283, 282, 227, 228, 225, 226, 438, 434, 435, 436, 437, 433, 402, 407, 408, 410, 409, 424, 425, 423, 426, 429, 432, 431, 421, 422, 411, 412, 406, 405, 395, 396, 397, 392, 394, 393, 383, 381, 382, 371, 370, 372, 373, 374, 380, 390, 391, 398, 375, 376, 379, 378, 388, 389, 413, 420, 419, 418, 414, 415, 430, 428, 427, 417, 416, 404, 403, 401, 399, 400, 387, 386, 385, 384, 377, 368, 367, 366, 365, 364, 363, 362, 361, 360, 369, 359, 338, 337, 336, 335, 334, 333, 332, 331, 329, 330, 328, 327, 326, 325, 324, 323, 322, 321, 320, 319, 318, 317, 316, 315, 314, 313, 312, 311, 310, 309, 308, 307, 306, 305, 304, 303, 302, 301, 300, 299, 298, 297, 296, 295, 294, 293, 278, 277, 276, 275, 274, 273, 272, 271, 270, 269, 268, 267, 266, 265, 264, 263, 262, 261, 260, 259, 258, 257, 256, 255, 253, 254, 251, 252, 208, 250, 249, 248, 247, 246, 245, 244, 243, 242, 241, 240, 239, 238, 237, 236, 235, 234, 233, 232, 223, 222, 221, 220, 219, 218, 217, 216, 215, 214, 213, 212, 211, 210, 209, 207, 206, 205, 204, 203, 202, 201, 200, 199, 198, 197, 196, 195, 194, 193, 192, 191, 182, 181, 180, 179, 178, 177, 176, 175, 174, 172, 173, 171, 170, 169, 167, 168, 165, 166, 164, 163, 162, 161, 160, 159, 158, 157, 156, 155, 154, 153, 152, 150, 149, 183, 190, 189, 184, 147, 144, 143, 145, 146, 111, 110, 109, 108, 107, 106, 105, 104, 103, 87, 88, 89, 90, 101, 102, 114, 115, 113, 112, 142, 151, 141, 140, 139, 138, 137, 136, 135, 134, 133, 132, 131, 130, 129, 127, 128, 126, 125, 124, 122, 123, 121, 120, 118, 117, 116, 119, 100, 99, 98, 97, 96, 95, 94, 93, 92, 91, 17, 18, 19, 66, 67, 68, 69, 70, 71, 64, 65, 21, 20, 23, 22, 24, 63, 73, 72, 62, 25, 26, 27, 28, 29, 30, 61, 60, 59, 58, 74, 75, 76, 86, 85, 77, 57, 56, 78, 79, 80, 81, 55, 54, 53, 52, 50, 49, 47, 46, 48, 45, 43, 41, 44, 42, 40, 39, 38, 37, 36, 35, 34, 33, 32, 31, 16, 15, 14, 13, 12, 11, 10, 9, 8, 7, 6, 5, 4, 3]
